
Lift and project cuts applied:  1
Gomory fractional cuts applied:  5

Root node processing (before b&c):
  Real time             =    0.00 sec. (0.06 ticks)
Parallel b&c, 8 threads:
  Real time             =  301.45 sec. (30965.21 ticks)
  Sync time (average)   =   87.43 sec.
  Wait time (average)   =    0.00 sec.
                          ------------
Total (root+branch&cut) =  301.45 sec. (30965.27 ticks)
Version identifier: 12.10.0.0 | 2019-11-26 | 843d4de
CPXPARAM_Threads                                 8
CPXPARAM_TimeLimit                               300
CPXPARAM_MIP_Tolerances_MIPGap                   0.01

Root node processing (before b&c):
  Real time             =    0.16 sec. (0.04 ticks)
Parallel b&c, 8 threads:
  Real time             =    0.54 sec. (3.98 ticks)
  Sync time (average)   =    0.00 sec.
  Wait time (average)   =    0.00 sec.
                          ------------
Total (root+branch&cut) =    0.70 sec. (4.02 ticks)

Lift and project cuts applied:  1
Gomory fractional cuts applied:  3

Root node processing (before b&c):
  Real time             =    0.33 sec. (143.33 ticks)
Parallel b&c, 8 threads:
  Real time             =  305.78 sec. (186189.20 ticks)
  Sync time (average)   =  104.32 sec.
  Wait time (average)   =    0.09 sec.
                          ------------
Total (root+branch&cut) =  306.11 sec. (186332.53 ticks)
Version identifier: 12.10.0.0 | 2019-11-26 | 843d4de
CPXPARAM_Threads                                 8
CPXPARAM_TimeLimit                               300
CPXPARAM_MIP_Tolerances_MIPGap                   0.0050000000000000001

Root node processing (before b&c):
  Real time             =    0.00 sec. (0.10 ticks)
Parallel b&c, 8 threads:
  Real time             =    0.11 sec. (6.49 ticks)
  Sync time (average)   =    0.00 sec.
  Wait time (average)   =    0.00 sec.
                          ------------
Total (root+branch&cut) =    0.11 sec. (6.59 ticks)

Mixed integer rounding cuts applied:  1
Lift and project cuts applied:  1
Gomory fractional cuts applied:  1

Root node processing (before b&c):
  Real time             =    0.18 sec. (56.03 ticks)
Parallel b&c, 8 threads:
  Real time             =  304.23 sec. (125558.72 ticks)
  Sync time (average)   =  127.65 sec.
  Wait time (average)   =    0.15 sec.
                          ------------
Total (root+branch&cut) =  304.41 sec. (125614.76 ticks)
Version identifier: 12.10.0.0 | 2019-11-26 | 843d4de
CPXPARAM_Threads                                 8
CPXPARAM_TimeLimit                               300
CPXPARAM_MIP_Tolerances_MIPGap                   0.0050000000000000001

Root node processing (before b&c):
  Real time             =    0.00 sec. (0.07 ticks)
Parallel b&c, 8 threads:
  Real time             =    0.10 sec. (7.13 ticks)
  Sync time (average)   =    0.00 sec.
  Wait time (average)   =    0.00 sec.
                          ------------
Total (root+branch&cut) =    0.10 sec. (7.20 ticks)

Lift and project cuts applied:  7
Gomory fractional cuts applied:  2

Root node processing (before b&c):
  Real time             =    0.00 sec. (0.08 ticks)
Parallel b&c, 8 threads:
  Real time             =  301.92 sec. (87812.89 ticks)
  Sync time (average)   =  179.60 sec.
  Wait time (average)   =    0.00 sec.
                          ------------
Total (root+branch&cut) =  301.92 sec. (87812.97 ticks)

Lift and project cuts applied:  21

Root node processing (before b&c):
  Real time             =    0.00 sec. (0.18 ticks)
Parallel b&c, 8 threads:
  Real time             =  302.98 sec. (386662.91 ticks)
  Sync time (average)   =  189.27 sec.
  Wait time (average)   =    0.00 sec.
                          ------------
Total (root+branch&cut) =  302.99 sec. (386663.10 ticks)
Version identifier: 12.10.0.0 | 2019-11-26 | 843d4de
CPXPARAM_Threads                                 8
CPXPARAM_TimeLimit                               300
CPXPARAM_MIP_Tolerances_MIPGap                   0.050000000000000003

Root node processing (before b&c):
  Real time             =    0.00 sec. (0.12 ticks)
Parallel b&c, 8 threads:
  Real time             =    0.11 sec. (6.39 ticks)
  Sync time (average)   =    0.00 sec.
  Wait time (average)   =    0.00 sec.
                          ------------
Total (root+branch&cut) =    0.11 sec. (6.52 ticks)

Lift and project cuts applied:  11
Gomory fractional cuts applied:  3

Root node processing (before b&c):
  Real time             =    0.00 sec. (0.18 ticks)
Parallel b&c, 8 threads:
  Real time             =  302.44 sec. (117568.76 ticks)
  Sync time (average)   =  174.18 sec.
  Wait time (average)   =    0.00 sec.
                          ------------
Total (root+branch&cut) =  302.45 sec. (117568.94 ticks)
Version identifier: 12.10.0.0 | 2019-11-26 | 843d4de
CPXPARAM_Threads                                 8
CPXPARAM_TimeLimit                               300
CPXPARAM_MIP_Tolerances_MIPGap                   0.050000000000000003

Root node processing (before b&c):
  Real time             =    0.00 sec. (0.12 ticks)
Parallel b&c, 8 threads:
  Real time             =    0.15 sec. (8.81 ticks)
  Sync time (average)   =    0.00 sec.
  Wait time (average)   =    0.00 sec.
                          ------------
Total (root+branch&cut) =    0.15 sec. (8.93 ticks)

Lift and project cuts applied:  7
Gomory fractional cuts applied:  2

Root node processing (before b&c):
  Real time             =    0.00 sec. (0.28 ticks)
Parallel b&c, 8 threads:
  Real time             =  309.93 sec. (143559.53 ticks)
  Sync time (average)   =  217.44 sec.
  Wait time (average)   =    0.00 sec.
                          ------------
Total (root+branch&cut) =  309.93 sec. (143559.81 ticks)
Version identifier: 12.10.0.0 | 2019-11-26 | 843d4de
CPXPARAM_Threads                                 8
CPXPARAM_TimeLimit                               300
CPXPARAM_MIP_Tolerances_MIPGap                   0.02

Root node processing (before b&c):
  Real time             =    0.00 sec. (0.19 ticks)
Parallel b&c, 8 threads:
  Real time             =    0.06 sec. (3.50 ticks)
  Sync time (average)   =    0.00 sec.
  Wait time (average)   =    0.00 sec.
                          ------------
Total (root+branch&cut) =    0.06 sec. (3.69 ticks)

Lift and project cuts applied:  7
Gomory fractional cuts applied:  4

Root node processing (before b&c):
  Real time             =    0.00 sec. (0.21 ticks)
Parallel b&c, 8 threads:
  Real time             =  309.32 sec. (471536.96 ticks)
  Sync time (average)   =  226.47 sec.
  Wait time (average)   =    0.00 sec.
                          ------------
Total (root+branch&cut) =  309.32 sec. (471537.17 ticks)
Version identifier: 12.10.0.0 | 2019-11-26 | 843d4de
CPXPARAM_Threads                                 8
CPXPARAM_TimeLimit                               300
CPXPARAM_MIP_Tolerances_MIPGap                   0.050000000000000003

Root node processing (before b&c):
  Real time             =    0.00 sec. (0.12 ticks)
Parallel b&c, 8 threads:
  Real time             =    0.06 sec. (3.45 ticks)
  Sync time (average)   =    0.00 sec.
  Wait time (average)   =    0.00 sec.
                          ------------
Total (root+branch&cut) =    0.06 sec. (3.57 ticks)

Lift and project cuts applied:  6
Gomory fractional cuts applied:  1

Root node processing (before b&c):
  Real time             =    0.00 sec. (0.34 ticks)
Parallel b&c, 8 threads:
  Real time             =  306.32 sec. (154642.60 ticks)
  Sync time (average)   =  213.03 sec.
  Wait time (average)   =    0.00 sec.
                          ------------
Total (root+branch&cut) =  306.32 sec. (154642.94 ticks)
Version identifier: 12.10.0.0 | 2019-11-26 | 843d4de
CPXPARAM_Threads                                 8
CPXPARAM_TimeLimit                               300
CPXPARAM_MIP_Tolerances_MIPGap                   0.02

Root node processing (before b&c):
  Real time             =    0.00 sec. (0.26 ticks)
Parallel b&c, 8 threads:
  Real time             =    0.08 sec. (3.57 ticks)
  Sync time (average)   =    0.00 sec.
  Wait time (average)   =    0.00 sec.
                          ------------
Total (root+branch&cut) =    0.08 sec. (3.84 ticks)

Lift and project cuts applied:  5
Gomory fractional cuts applied:  2

Root node processing (before b&c):
  Real time             =    0.00 sec. (0.27 ticks)
Parallel b&c, 8 threads:
  Real time             = 1084.88 sec. (4217390.50 ticks)
  Sync time (average)   =  507.28 sec.
  Wait time (average)   =    0.00 sec.
                          ------------
Total (root+branch&cut) = 1084.88 sec. (4217390.77 ticks)
Version identifier: 12.10.0.0 | 2019-11-26 | 843d4de
CPXPARAM_Threads                                 8
CPXPARAM_TimeLimit                               300
CPXPARAM_MIP_Tolerances_MIPGap                   0.050000000000000003

Root node processing (before b&c):
  Real time             =    0.00 sec. (0.19 ticks)
Parallel b&c, 8 threads:
  Real time             =    0.08 sec. (3.98 ticks)
  Sync time (average)   =    0.00 sec.
  Wait time (average)   =    0.00 sec.
                          ------------
Total (root+branch&cut) =    0.08 sec. (4.17 ticks)

Lift and project cuts applied:  7
Gomory fractional cuts applied:  3

Root node processing (before b&c):
  Real time             =    0.42 sec. (239.68 ticks)
Parallel b&c, 8 threads:
  Real time             =  305.46 sec. (281039.07 ticks)
  Sync time (average)   =   89.98 sec.
  Wait time (average)   =    0.03 sec.
                          ------------
Total (root+branch&cut) =  305.88 sec. (281278.75 ticks)
Version identifier: 12.10.0.0 | 2019-11-26 | 843d4de
CPXPARAM_Threads                                 8
CPXPARAM_TimeLimit                               300
CPXPARAM_MIP_Tolerances_MIPGap                   0.0050000000000000001

Root node processing (before b&c):
  Real time             =    0.00 sec. (0.16 ticks)
Parallel b&c, 8 threads:
  Real time             =    0.07 sec. (3.46 ticks)
  Sync time (average)   =    0.00 sec.
  Wait time (average)   =    0.00 sec.
                          ------------
Total (root+branch&cut) =    0.07 sec. (3.62 ticks)
